experiments/21_JSA_experiments/solutions/scalability/imx8a/IN_10_6.json-ILP-IDLE-MAX.out.log
Using license file /home/benedond/gurobi.lic
Using gurobi.env file
Set parameter Threads to value 1
Academic license - for non-commercial use only
Changed value of parameter TimeLimit to 300.0
   Prev: inf  Min: 0.0  Max: inf  Default: inf
Gurobi Optimizer version 9.0.1 build v9.0.1rc0 (linux64)
Optimize a model with 240 rows, 210 columns and 828 nonzeros
Model fingerprint: 0xcd1acb3f
Variable types: 10 continuous, 200 integer (200 binary)
Coefficient statistics:
  Matrix range     [1e+00, 3e+02]
  Objective range  [4e+01, 3e+02]
  Bounds range     [1e+00, 1e+00]
  RHS range        [1e+00, 3e+02]
Presolve removed 162 rows and 149 columns
Presolve time: 0.01s
Presolved: 78 rows, 61 columns, 406 nonzeros
Variable types: 6 continuous, 55 integer (55 binary)
Found heuristic solution: objective 1075.0000000
Found heuristic solution: objective 1136.0000000

Root relaxation: objective 1.149000e+03, 37 iterations, 0.00 seconds

    Nodes    |    Current Node    |     Objective Bounds      |     Work
 Expl Unexpl |  Obj  Depth IntInf | Incumbent    BestBd   Gap | It/Node Time

     0     0 1149.00000    0    4 1136.00000 1149.00000  1.14%     -    0s
     0     0 1137.00000    0    4 1136.00000 1137.00000  0.09%     -    0s
H    0     0                    1137.0000000 1137.00000  0.00%     -    0s
     0     0 1137.00000    0    4 1137.00000 1137.00000  0.00%     -    0s

Cutting planes:
  Cover: 2
  MIR: 1

Explored 1 nodes (64 simplex iterations) in 0.02 seconds
Thread count was 1 (of 4 available processors)

Solution count 3: 1137 1136 1075 

Optimal solution found (tolerance 1.00e-04)
Best objective 1.137000000000e+03, best bound 1.137000000000e+03, gap 0.0000%
